data;


param d:= 100;
param r:=5;
param p:=0.720000;
param M:=1000;
param U:=
         1         1        7.575415e-01
         2         1       -2.066574e+00
         3         1        2.383197e+00
         4         1        2.652632e-01
         5         1       -4.643636e-01
         6         1        1.253227e+00
         7         1        4.835134e-01
         8         1       -1.024150e-01
         9         1        1.485743e-01
        10         1       -1.498568e-01
        11         1       -7.521487e-01
        12         1       -9.462413e-01
        13         1       -3.162892e-01
        14         1        2.581465e-01
        15         1       -4.375422e-01
        16         1        5.706042e-01
        17         1       -2.234318e-01
        18         1       -7.674472e-01
        19         1        6.886175e-01
        20         1        8.243244e-01
        21         1        9.548078e-01
        22         1        5.894949e-02
        23         1        4.264210e-01
        24         1        1.857591e+00
        25         1       -1.224363e+00
        26         1       -2.314187e+00
        27         1       -9.414286e-01
        28         1       -1.555227e-01
        29         1        8.864226e-01
        30         1        1.841324e+00
        31         1        8.023823e-01
        32         1        6.875504e-01
        33         1       -4.504013e-01
        34         1       -1.175187e+00
        35         1       -1.916886e-01
        36         1       -2.600423e-01
        37         1       -1.067662e+00
        38         1        7.625345e-01
        39         1       -5.304719e-01
        40         1       -1.231407e+00
        41         1       -7.638342e-01
        42         1       -1.190827e+00
        43         1       -5.323182e-01
        44         1       -4.199273e-01
        45         1        9.566805e-03
        46         1        1.099115e+00
        47         1       -1.779604e+00
        48         1        6.143207e-01
        49         1       -9.901639e-01
        50         1       -6.097146e-01
        51         1        9.654323e-01
        52         1        7.797764e-01
        53         1       -3.375451e-01
        54         1       -5.528584e-01
        55         1       -3.316814e-01
        56         1       -7.921620e-01
        57         1       -2.182671e-02
        58         1       -1.610377e+00
        59         1        6.425395e-01
        60         1       -8.650148e-01
        61         1        3.259048e-01
        62         1       -1.058952e-01
        63         1       -9.948925e-01
        64         1       -3.516067e-01
        65         1        1.710342e+00
        66         1        5.721076e-01
        67         1       -3.136229e-01
        68         1        1.693117e+00
        69         1        2.899756e+00
        70         1       -7.718930e-01
        71         1       -3.226500e-01
        72         1       -6.796862e-01
        73         1        6.667368e-02
        74         1       -1.229421e+00
        75         1       -2.370795e-01
        76         1       -4.213284e-01
        77         1       -1.387061e+00
        78         1       -2.008601e+00
        79         1        5.870060e-01
        80         1       -7.746343e-01
        81         1       -1.145213e+00
        82         1        4.099882e-01
        83         1       -1.238963e+00
        84         1        1.853081e+00
        85         1       -1.317917e+00
        86         1        1.105199e+00
        87         1       -1.200462e+00
        88         1       -2.643116e-01
        89         1       -6.906263e-01
        90         1        1.020345e-01
        91         1        1.139939e+00
        92         1       -5.516973e-01
        93         1        1.609064e+00
        94         1        3.146349e+00
        95         1       -1.346725e-01
        96         1        9.066703e-01
        97         1       -1.574801e-01
        98         1       -2.784529e-02
        99         1        8.034836e-01
       100         1       -4.098879e-01
         1         2       -6.965478e-01
         2         2       -4.690294e-02
         3         2        5.712722e-01
         4         2       -1.529175e+00
         5         2        4.639341e-01
         6         2       -6.415186e-01
         7         2       -1.986730e+00
         8         2       -1.777524e+00
         9         2       -1.580021e+00
        10         2       -2.279364e-01
        11         2        3.325652e-01
        12         2       -2.220678e-04
        13         2       -1.244145e-01
        14         2        7.362340e-02
        15         2        1.803864e-01
        16         2        1.906894e+00
        17         2        1.399725e+00
        18         2       -2.948311e+00
        19         2       -8.179901e-01
        20         2        5.524807e-01
        21         2       -5.097100e-01
        22         2       -9.854491e-02
        23         2        3.362479e-01
        24         2        1.103202e+00
        25         2       -8.212916e-01
        26         2       -9.807608e-01
        27         2       -6.303910e-01
        28         2        1.013310e+00
        29         2        2.989867e-01
        30         2        5.258130e-01
        31         2        8.589133e-01
        32         2        2.239965e-01
        33         2       -1.532979e+00
        34         2        1.519942e+00
        35         2        7.690892e-01
        36         2        5.549234e-02
        37         2       -1.418132e+00
        38         2        7.628943e-01
        39         2       -4.687559e-01
        40         2        4.109153e-01
        41         2        9.717873e-01
        42         2        4.921643e-01
        43         2       -2.346970e+00
        44         2       -1.157976e+00
        45         2        1.956468e+00
        46         2       -2.701790e-01
        47         2       -8.548280e-02
        48         2        1.484013e-01
        49         2        1.940551e+00
        50         2        1.373310e+00
        51         2       -5.607206e-01
        52         2       -1.654937e+00
        53         2       -4.017070e-01
        54         2        6.286196e-01
        55         2        2.104257e-02
        56         2       -3.970431e-02
        57         2        3.172688e-01
        58         2       -9.685538e-01
        59         2        4.629933e-01
        60         2        5.157788e-01
        61         2        1.379319e+00
        62         2        1.460124e+00
        63         2       -7.032177e-01
        64         2        1.240034e+00
        65         2        1.806736e+00
        66         2        1.299228e-01
        67         2        8.070525e-01
        68         2       -1.562808e-03
        69         2       -8.468228e-03
        70         2       -1.529086e+00
        71         2        5.617460e-01
        72         2        2.404283e-02
        73         2        3.982289e-01
        74         2       -9.452055e-02
        75         2        1.411431e+00
        76         2       -1.267680e+00
        77         2        1.952931e+00
        78         2       -4.062862e-01
        79         2        1.026458e-01
        80         2       -1.958596e+00
        81         2       -3.506989e-01
        82         2       -3.074422e-01
        83         2        2.029515e-01
        84         2       -4.143822e-02
        85         2       -4.060755e-01
        86         2       -1.389387e+00
        87         2       -6.323329e-01
        88         2        2.841083e+00
        89         2       -1.318111e+00
        90         2       -5.793111e-01
        91         2        6.534614e-01
        92         2       -6.114839e-01
        93         2       -9.689631e-01
        94         2       -7.861714e-04
        95         2       -4.219039e-02
        96         2       -8.906257e-01
        97         2       -4.701237e-01
        98         2       -9.618355e-01
        99         2       -1.833962e+00
       100         2        6.133382e-01
         1         3       -9.946375e-01
         2         3        3.387390e-01
         3         3       -1.398364e+00
         4         3        3.730352e-01
         5         3       -7.824785e-02
         6         3        3.186272e-01
         7         3        9.769074e-01
         8         3        1.785423e+00
         9         3        9.333231e-01
        10         3       -6.138407e-01
        11         3        1.161529e+00
        12         3       -4.838206e-01
        13         3        1.381417e-01
        14         3       -1.153596e+00
        15         3       -1.577127e+00
        16         3       -1.196144e+00
        17         3       -1.117508e+00
        18         3       -5.072967e-01
        19         3       -1.777182e-02
        20         3        1.719279e-01
        21         3       -1.766285e-01
        22         3       -4.489794e-01
        23         3       -7.994784e-01
        24         3        2.430412e-01
        25         3        5.821708e-01
        26         3        1.082225e+00
        27         3       -2.015302e+00
        28         3        1.103954e-01
        29         3       -1.172462e+00
        30         3        1.025942e+00
        31         3       -8.851326e-01
        32         3        6.018194e-01
        33         3        6.452592e-01
        34         3        9.918635e-01
        35         3       -5.130712e-01
        36         3       -7.951868e-02
        37         3       -3.329459e-01
        38         3        9.397422e-01
        39         3       -7.797669e-02
        40         3       -2.067864e+00
        41         3       -7.311252e-01
        42         3       -1.042359e+00
        43         3       -1.614367e+00
        44         3        5.653302e-01
        45         3       -4.568913e-01
        46         3       -4.195900e-02
        47         3        5.382799e-01
        48         3        1.208548e+00
        49         3        1.128794e+00
        50         3       -2.582233e-01
        51         3       -9.044515e-01
        52         3       -4.830464e-01
        53         3       -1.100847e+00
        54         3        1.159417e+00
        55         3       -3.780500e-01
        56         3       -2.107703e-01
        57         3       -1.943330e-01
        58         3       -1.816558e+00
        59         3        1.425729e+00
        60         3       -4.683300e-01
        61         3        1.227401e-01
        62         3        2.939784e-01
        63         3       -6.041442e-01
        64         3       -2.025421e+00
        65         3       -2.610680e-01
        66         3       -1.114382e-01
        67         3       -3.247976e-01
        68         3       -9.710719e-03
        69         3        6.735444e-01
        70         3        4.898176e-02
        71         3        2.561747e+00
        72         3       -1.098906e+00
        73         3        2.483981e+00
        74         3       -1.190842e+00
        75         3       -5.038473e-01
        76         3        9.387407e-01
        77         3        1.000326e+00
        78         3       -1.652166e+00
        79         3       -4.663715e-01
        80         3       -1.172568e+00
        81         3        3.120454e-01
        82         3       -1.195844e+00
        83         3       -4.390046e-01
        84         3        1.134138e+00
        85         3       -7.763559e-02
        86         3        6.377417e-01
        87         3       -8.144242e-01
        88         3       -1.039292e+00
        89         3        1.683175e-01
        90         3        2.195322e-01
        91         3       -1.158182e+00
        92         3        8.660307e-01
        93         3       -8.286403e-01
        94         3        1.324396e+00
        95         3        1.297304e+00
        96         3        2.194580e-01
        97         3        1.529788e+00
        98         3        4.765815e-01
        99         3        8.674785e-01
       100         3       -1.587327e-02
         1         4        5.538597e-01
         2         4       -4.724872e-01
         3         4        9.536419e-01
         4         4        6.525986e-01
         5         4       -4.925298e-01
         6         4       -2.351145e+00
         7         4       -6.901662e-01
         8         4        3.826065e-01
         9         4       -2.127144e+00
        10         4       -5.868546e-01
        11         4        1.324932e+00
        12         4        4.544838e-01
        13         4        1.084597e+00
        14         4        2.705377e-01
        15         4        1.694792e-01
        16         4        9.886529e-01
        17         4       -2.223821e-02
        18         4       -7.594155e-01
        19         4        4.972686e-02
        20         4       -1.461553e+00
        21         4        6.837906e-01
        22         4       -1.712285e+00
        23         4        9.174859e-01
        24         4       -3.463039e-01
        25         4       -1.323717e-01
        26         4        1.813025e-01
        27         4       -7.279401e-01
        28         4       -1.543329e-01
        29         4        2.118556e+00
        30         4       -8.810667e-01
        31         4        4.907899e-01
        32         4       -6.331484e-01
        33         4       -9.916053e-01
        34         4       -1.173880e+00
        35         4        1.565007e+00
        36         4        2.919647e-01
        37         4       -6.623292e-01
        38         4        1.883538e-01
        39         4       -1.716224e+00
        40         4        1.629246e+00
        41         4        1.589537e-01
        42         4       -7.581723e-01
        43         4        1.891271e-01
        44         4       -2.260571e-01
        45         4        7.092967e-01
        46         4        3.857522e-01
        47         4        3.277713e-01
        48         4       -1.802343e+00
        49         4       -5.523526e-01
        50         4       -1.611151e+00
        51         4       -3.917834e-02
        52         4        3.387721e-01
        53         4        8.423677e-01
        54         4        3.870298e-01
        55         4       -1.455577e+00
        56         4        1.918586e+00
        57         4       -5.618833e-02
        58         4        1.366521e+00
        59         4       -5.312306e-01
        60         4        7.321638e-01
        61         4        2.038572e-01
        62         4       -4.989291e-01
        63         4        1.082326e+00
        64         4        7.655444e-02
        65         4       -9.429464e-01
        66         4       -8.437549e-01
        67         4        1.146007e+00
        68         4        1.575062e-01
        69         4        1.283414e+00
        70         4       -8.930080e-01
        71         4       -1.241403e+00
        72         4       -1.705005e+00
        73         4       -1.132271e-01
        74         4       -1.255887e+00
        75         4       -5.925176e-01
        76         4        7.268239e-01
        77         4       -6.709011e-01
        78         4       -3.883073e-01
        79         4       -8.336049e-01
        80         4       -1.086411e+00
        81         4       -1.953807e-01
        82         4        1.195630e-01
        83         4       -4.238869e-01
        84         4        4.777271e-02
        85         4       -2.152966e+00
        86         4       -1.310091e+00
        87         4        3.940044e-01
        88         4       -3.523424e-01
        89         4        1.235618e+00
        90         4       -7.357644e-01
        91         4       -2.332954e-01
        92         4       -1.510722e-01
        93         4       -1.598605e+00
        94         4        1.088305e+00
        95         4       -1.998544e+00
        96         4        4.605689e-01
        97         4       -3.872924e-01
        98         4        6.700935e-01
        99         4        9.604500e-02
       100         4       -7.967902e-01
         1         5        2.725409e-01
         2         5       -1.777955e-01
         3         5       -1.246139e+00
         4         5        1.939172e+00
         5         5       -1.556903e+00
         6         5        1.782804e+00
         7         5        3.125055e-01
         8         5       -1.469200e-01
         9         5       -2.632095e-01
        10         5       -9.765383e-01
        11         5       -1.891184e+00
        12         5        1.453867e-01
        13         5       -1.226233e+00
        14         5        3.284089e-01
        15         5       -6.842810e-01
        16         5        1.111981e-01
        17         5        3.089742e-01
        18         5        8.635088e-01
        19         5        8.220928e-01
        20         5       -1.710624e+00
        21         5       -3.451573e-01
        22         5        2.897538e-01
        23         5       -1.992205e+00
        24         5       -7.704616e-01
        25         5        1.417055e+00
        26         5       -1.852492e-01
        27         5        8.041405e-01
        28         5       -6.439005e-01
        29         5       -1.722018e-01
        30         5        2.118816e+00
        31         5       -7.405781e-01
        32         5       -2.019806e-01
        33         5        1.194430e+00
        34         5        7.925993e-01
        35         5       -9.993832e-02
        36         5       -2.540843e+00
        37         5       -1.863825e+00
        38         5        8.007862e-01
        39         5       -2.245931e-02
        40         5       -1.280457e+00
        41         5        1.469769e+00
        42         5        1.824032e-01
        43         5       -1.362545e+00
        44         5        1.082869e+00
        45         5        7.198658e-01
        46         5       -8.625534e-01
        47         5       -3.204222e-01
        48         5       -1.268909e+00
        49         5        1.040701e+00
        50         5        4.420000e-01
        51         5        1.288157e+00
        52         5       -1.783353e-01
        53         5        1.180404e+00
        54         5       -7.480022e-01
        55         5       -9.230427e-01
        56         5        2.229135e+00
        57         5        1.638457e+00
        58         5       -1.302263e-01
        59         5       -1.911557e-01
        60         5       -1.232262e+00
        61         5        1.605434e+00
        62         5        3.232914e-01
        63         5       -8.909317e-01
        64         5        1.470157e+00
        65         5        5.943632e-02
        66         5       -5.584550e-01
        67         5        1.621478e-01
        68         5        2.999946e-01
        69         5       -7.582987e-01
        70         5       -1.124910e+00
        71         5       -1.153517e-01
        72         5        1.701669e+00
        73         5        4.533045e-01
        74         5        3.759496e-01
        75         5       -6.218973e-01
        76         5        1.354260e-01
        77         5       -6.623536e-01
        78         5       -1.050736e+00
        79         5        9.910470e-01
        80         5       -9.799613e-01
        81         5        1.291243e+00
        82         5        4.322772e-01
        83         5        2.121173e-01
        84         5        2.227413e-02
        85         5       -4.772770e-02
        86         5       -4.929047e-01
        87         5       -3.858629e-01
        88         5       -5.761703e-01
        89         5       -6.006753e-01
        90         5       -7.168748e-01
        91         5        8.668689e-02
        92         5       -2.322751e-01
        93         5        7.150519e-01
        94         5       -3.182688e-01
        95         5        2.281682e+00
        96         5        8.335045e-01
        97         5       -1.342011e+00
        98         5        8.529800e-01
        99         5        7.753525e-01
       100         5        1.152440e-01
;

param theta:=
    1        8.340803e-02
    2       -1.267507e+00
    3       -7.765296e-01
    4       -8.595681e-02
    5        2.095038e+00
;
param X_true:=
    1        2.241805e+00
    2       -7.078347e-01
    3       -2.132124e+00
    4        5.677234e+00
    5       -3.785444e+00
    6        4.607375e+00
    7        2.513961e+00
    8        5.173566e-01
    9        9.217347e-01
   10       -1.242364e+00
   11       -5.462215e+00
   12        5.625831e-01
   13       -2.638189e+00
   14        1.488789e+00
   15       -4.886124e-01
   16       -1.292584e+00
   17       -2.757948e-01
   18        5.941284e+00
   19        2.826086e+00
   20       -4.223218e+00
   21        8.096241e-02
   22        1.232697e+00
   23       -4.022421e+00
   24       -3.016486e+00
   25        3.466961e+00
   26       -1.939694e-01
   27        4.032720e+00
   28       -2.718804e+00
   29        6.254497e-02
   30        3.205169e+00
   31       -1.928148e+00
   32       -1.062634e+00
   33        3.992043e+00
   34       -1.033339e+00
   35       -9.362966e-01
   36       -5.378537e+00
   37       -1.880870e+00
   38        2.837777e-02
   39        7.109248e-01
   40       -1.840440e+00
   41        2.337843e+00
   42        5.335881e-01
   43        1.313164e+00
   44        3.281804e+00
   45       -6.770710e-01
   46       -1.373529e+00
   47       -1.157544e+00
   48       -3.578822e+00
   49       -1.191005e+00
   50       -5.265207e-01
   51        4.195681e+00
   52        2.135043e+00
   53        3.736437e+00
   54       -3.343575e+00
   55       -1.569462e+00
   56        4.653129e+00
   57        3.184405e+00
   58        2.113650e+00
   59       -1.995191e+00
   60       -3.006800e+00
   61        1.529499e+00
   62       -1.367639e+00
   63       -6.820824e-01
   64        3.045176e+00
   65       -1.739093e+00
   66       -1.127883e+00
   67       -5.556893e-01
   68        7.657024e-01
   69       -1.969414e+00
   70       -4.442597e-01
   71       -2.863160e+00
   72        4.477785e+00
   73       -1.468659e+00
   74        1.837567e+00
   75       -2.669487e+00
   76        1.063938e+00
   77       -4.697816e+00
   78       -5.375620e-01
   79        2.428943e+00
   80        1.368784e+00
   81        2.828679e+00
   82        2.247850e+00
   83        4.611481e-01
   84       -6.310481e-01
   85        5.501356e-01
   86        4.379715e-01
   87        4.915174e-01
   88       -3.992908e+00
   89        1.177602e-01
   90       -8.663183e-01
   91        3.678416e-01
   92       -4.170940e-01
   93        3.641312e+00
   94       -1.525338e+00
   95        3.986849e+00
   96        2.740716e+00
   97       -3.383450e+00
   98        2.576157e+00
   99        3.334091e+00
  100       -4.893420e-01
;
param X:=
    1       -5.553482e-01
    2        3.592402e-01
    3       -2.132124e+00
    4       -5.548800e-01
    5        3.883762e-01
    6        3.969056e-01
    7        2.543812e-01
    8        5.173566e-01
    9        4.729598e-01
   10       -1.242364e+00
   11       -5.462215e+00
   12        1.032908e+00
   13        2.588732e-01
   14       -1.762153e+00
   15       -4.886124e-01
   16       -1.403044e+00
   17       -2.757948e-01
   18       -1.132610e-01
   19       -9.310825e-03
   20       -8.987694e-01
   21       -1.050737e+00
   22        1.330131e+00
   23       -4.621404e-01
   24       -9.548270e-01
   25       -9.425864e-02
   26       -1.939694e-01
   27       -6.763308e-01
   28       -8.114670e-01
   29        6.254497e-02
   30       -1.645586e+00
   31       -1.928148e+00
   32        4.187923e-02
   33        3.992043e+00
   34       -3.741624e-01
   35       -9.362966e-01
   36       -5.378537e+00
   37       -4.540421e-01
   38        2.837777e-02
   39        7.109248e-01
   40        2.812172e-01
   41       -6.377008e-01
   42       -6.645802e-01
   43        1.313164e+00
   44        3.281804e+00
   45       -1.132335e+00
   46        6.014258e-01
   47       -1.157544e+00
   48       -1.319897e-01
   49       -1.191005e+00
   50        8.673967e-02
   51        4.195681e+00
   52        2.135043e+00
   53        3.736437e+00
   54        1.210451e+00
   55       -6.295552e-02
   56        5.184107e-01
   57        3.670603e-02
   58       -1.585337e+00
   59        6.935675e-01
   60       -2.123646e+00
   61        5.455057e-01
   62       -9.877641e-01
   63        4.490217e-01
   64        3.045176e+00
   65       -5.751608e-01
   66       -1.128872e+00
   67       -5.556893e-01
   68       -5.388115e-02
   69        9.657125e-01
   70        1.078592e+00
   71        7.398458e-01
   72       -1.345528e+00
   73        6.095617e-01
   74        3.212648e-01
   75       -8.593985e-01
   76        5.093704e-01
   77       -4.697816e+00
   78       -5.375620e-01
   79        2.428943e+00
   80        4.037946e-01
   81        2.828679e+00
   82        2.247850e+00
   83        3.913891e-02
   84       -2.884642e-01
   85        3.279391e-01
   86       -6.782620e-01
   87        8.456255e-01
   88       -1.955446e-01
   89        9.676082e-01
   90       -1.777220e+00
   91       -6.221741e-01
   92       -4.988116e-01
   93        2.221152e-01
   94        6.283279e-01
   95        1.145630e+00
   96        6.527712e-01
   97       -1.624883e+00
   98       -7.260608e-01
   99        1.176918e-01
  100        7.896307e-01
;
param outliervec:=
    1    1
    2    1
    3    0
    4    1
    5    1
    6    1
    7    1
    8    0
    9    1
   10    0
   11    0
   12    1
   13    1
   14    1
   15    0
   16    1
   17    0
   18    1
   19    1
   20    1
   21    1
   22    1
   23    1
   24    1
   25    1
   26    0
   27    1
   28    1
   29    0
   30    1
   31    0
   32    1
   33    0
   34    1
   35    0
   36    0
   37    1
   38    0
   39    0
   40    1
   41    1
   42    1
   43    0
   44    0
   45    1
   46    1
   47    0
   48    1
   49    0
   50    1
   51    0
   52    0
   53    0
   54    1
   55    1
   56    1
   57    1
   58    1
   59    1
   60    1
   61    1
   62    1
   63    1
   64    0
   65    1
   66    1
   67    0
   68    1
   69    1
   70    1
   71    1
   72    1
   73    1
   74    1
   75    1
   76    1
   77    0
   78    0
   79    0
   80    1
   81    0
   82    0
   83    1
   84    1
   85    1
   86    1
   87    1
   88    1
   89    1
   90    1
   91    1
   92    1
   93    1
   94    1
   95    1
   96    1
   97    1
   98    1
   99    1
  100    1
;